NAME : TW_55_seed_None_id_0
TYPE : CVRPTW
DIMENSION : 21
EDGE_WEIGHT_TYPE : EUC_2D
CAPACITY : 40
SERVICE_TIME : 100
LATE_COEFF : 0
NODE_COORD_SECTION
1	380	675
2	68	512
3	623	959
4	887	864
5	865	836
6	661	152
7	847	970
8	844	146
9	326	332
10	195	267
11	545	685
12	416	106
13	765	166
14	532	720
15	444	737
16	260	742
17	903	858
18	269	657
19	899	902
20	591	372
21	349	909
DEMAND_SECTION
1	0
2	9
3	10
4	8
5	2
6	8
7	7
8	7
9	3
10	1
11	1
12	6
13	5
14	8
15	5
16	9
17	2
18	8
19	8
20	2
21	10
TIME_WINDOW_SECTION
1	0	10000
2	0	10000
3	0	10000
4	0	10000
5	0	10000
6	0	10000
7	0	10000
8	0	10000
9	0	10000
10	0	10000
11	0	10000
12	0	10000
13	0	10000
14	0	10000
15	0	10000
16	0	10000
17	0	10000
18	0	10000
19	0	10000
20	0	10000
21	0	10000
DEPOT_SECTION
1
-1
EOF
